unsat
( c0
  c1
  c10
  c1002
  c1003
  c1004
  c1011
  c1013
  c1014
  c1017
  c1018
  c1019
  c1020
  c1022
  c1027
  c1028
  c103
  c1030
  c1031
  c1034
  c1036
  c1043
  c1044
  c1045
  c1046
  c1050
  c1051
  c1052
  c1053
  c1055
  c1073
  c1076
  c1079
  c1082
  c1084
  c1085
  c1088
  c109
  c1090
  c1093
  c1100
  c1101
  c1102
  c1103
  c1106
  c1107
  c1108
  c1109
  c1111
  c1114
  c1116
  c1117
  c1119
  c1120
  c1123
  c1125
  c1126
  c1127
  c1128
  c1132
  c1133
  c1134
  c1135
  c1139
  c1140
  c1141
  c1142
  c1143
  c1144
  c1159
  c1162
  c1165
  c1168
  c1170
  c1171
  c1173
  c1174
  c1177
  c1179
  c1180
  c1181
  c1182
  c1189
  c1190
  c1191
  c1192
  c1193
  c1195
  c1196
  c1197
  c1198
  c1199
  c1200
  c1205
  c1206
  c1212
  c1215
  c1216
  c1217
  c1221
  c1223
  c1224
  c1225
  c1228
  c1229
  c1230
  c1231
  c1233
  c124
  c1251
  c1254
  c1257
  c1259
  c1260
  c1266
  c1269
  c127
  c1270
  c1271
  c1278
  c1280
  c1281
  c1282
  c1284
  c1285
  c1286
  c1287
  c1289
  c129
  c1294
  c1295
  c1297
  c1298
  c130
  c1301
  c1303
  c1310
  c1311
  c1312
  c1313
  c1317
  c1318
  c1319
  c1320
  c1322
  c1340
  c1343
  c1346
  c1348
  c1349
  c1351
  c1352
  c1355
  c1357
  c1367
  c1368
  c1369
  c1370
  c1373
  c1374
  c1375
  c1376
  c1378
  c138
  c1381
  c1383
  c1384
  c1386
  c1387
  c1390
  c1392
  c1393
  c1394
  c1395
  c1399
  c14
  c1400
  c1401
  c1402
  c1406
  c1407
  c1408
  c1409
  c1410
  c1411
  c1426
  c1429
  c1432
  c1435
  c1437
  c1438
  c144
  c1440
  c1441
  c1444
  c1446
  c1447
  c1448
  c1449
  c1456
  c1457
  c1458
  c1459
  c1462
  c1463
  c1464
  c1465
  c1466
  c1467
  c1472
  c1473
  c1479
  c1482
  c1483
  c1484
  c1488
  c1490
  c1491
  c1495
  c1496
  c1497
  c1498
  c15
  c1500
  c1518
  c1521
  c1524
  c1527
  c1533
  c1536
  c1537
  c1538
  c1545
  c1547
  c1548
  c1551
  c1552
  c1553
  c1554
  c1556
  c156
  c1562
  c1568
  c1579
  c1580
  c1584
  c1585
  c1587
  c160
  c1607
  c161
  c1613
  c1616
  c162
  c1622
  c163
  c1636
  c1637
  c1638
  c1640
  c1641
  c1643
  c1645
  c1649
  c1652
  c1657
  c1658
  c1659
  c1661
  c1662
  c1663
  c1666
  c1668
  c1672
  c1674
  c1677
  c1678
  c1681
  c1683
  c1686
  c1687
  c1689
  c1691
  c1692
  c1693
  c1696
  c1698
  c17
  c1701
  c1702
  c1704
  c1706
  c1708
  c1709
  c1711
  c1712
  c1716
  c1717
  c1719
  c1722
  c1723
  c1726
  c1727
  c1731
  c1733
  c1735
  c1736
  c1745
  c1746
  c183
  c186
  c189
  c19
  c192
  c198
  c20
  c213
  c216
  c217
  c218
  c219
  c226
  c229
  c230
  c233
  c235
  c24
  c242
  c243
  c245
  c249
  c25
  c250
  c252
  c272
  c275
  c278
  c280
  c283
  c284
  c287
  c289
  c299
  c300
  c302
  c305
  c306
  c307
  c308
  c313
  c315
  c316
  c318
  c319
  c322
  c324
  c325
  c326
  c327
  c331
  c332
  c333
  c334
  c338
  c339
  c340
  c341
  c342
  c343
  c358
  c361
  c364
  c367
  c369
  c370
  c372
  c373
  c376
  c378
  c379
  c38
  c380
  c381
  c388
  c389
  c39
  c390
  c391
  c392
  c394
  c395
  c396
  c397
  c398
  c399
  c40
  c404
  c405
  c41
  c411
  c414
  c415
  c416
  c42
  c420
  c422
  c423
  c427
  c428
  c429
  c43
  c430
  c432
  c450
  c453
  c456
  c458
  c459
  c465
  c468
  c469
  c470
  c477
  c479
  c480
  c481
  c483
  c484
  c485
  c486
  c488
  c49
  c493
  c494
  c496
  c497
  c500
  c502
  c509
  c510
  c511
  c512
  c516
  c517
  c518
  c519
  c521
  c539
  c542
  c545
  c547
  c548
  c55
  c550
  c551
  c554
  c556
  c566
  c567
  c568
  c569
  c572
  c573
  c574
  c575
  c577
  c580
  c582
  c583
  c585
  c586
  c589
  c591
  c592
  c593
  c594
  c598
  c599
  c6
  c600
  c601
  c605
  c606
  c607
  c608
  c609
  c610
  c625
  c628
  c631
  c634
  c636
  c637
  c639
  c640
  c643
  c645
  c646
  c647
  c648
  c655
  c656
  c657
  c658
  c661
  c662
  c663
  c664
  c665
  c666
  c67
  c671
  c672
  c678
  c681
  c682
  c683
  c687
  c689
  c690
  c694
  c695
  c696
  c697
  c699
  c7
  c71
  c717
  c720
  c723
  c725
  c726
  c73
  c732
  c735
  c736
  c737
  c74
  c744
  c746
  c747
  c750
  c751
  c752
  c753
  c755
  c760
  c761
  c763
  c764
  c767
  c769
  c776
  c777
  c778
  c779
  c783
  c784
  c785
  c786
  c788
  c8
  c806
  c809
  c812
  c814
  c815
  c817
  c818
  c821
  c823
  c833
  c834
  c835
  c836
  c839
  c840
  c841
  c842
  c844
  c847
  c849
  c850
  c852
  c853
  c856
  c858
  c859
  c860
  c861
  c865
  c866
  c867
  c868
  c872
  c873
  c874
  c875
  c876
  c877
  c892
  c895
  c898
  c901
  c903
  c904
  c906
  c907
  c910
  c912
  c913
  c914
  c915
  c922
  c923
  c924
  c925
  c928
  c929
  c930
  c931
  c932
  c933
  c938
  c939
  c94
  c945
  c948
  c949
  c950
  c954
  c956
  c957
  c961
  c962
  c963
  c964
  c966
  c97
  c984
  c987
  c990
  c992
  c993
  c999 )
